sat
(:max-memory         18.42
 :memory             18.32
 :nlsat-arith-var    3
 :nlsat-atoms        10
 :nlsat-bool-var     1
 :nlsat-clauses      10
 :nlsat-propagations 10
 :nlsat-stages       4
 :num-allocs         50425
 :rlimit-count       674
 :time               0.00
 :total-time         0.01)
